ACTORES = {Actor1, Actor2, Actor3, Actor4};

Escenas = [| 0,1,0,0,0,0,1,0,1,0,10
           | 0,1,1,1,0,1,0,1,0,1,20
           | 0,0,0,0,1,1,0,1,1,1,15
           | 1,1,0,0,0,1,1,1,0,1,5|]; 
           
Duracion = [2,1,2,1,3,4,1,3,2,1];

